S = 5;
start = [|0,0,6,0,20,0,0,3,0,0,0,0,0,23,0,0,0,5,0,0,13,0,0,12,7|
12,16,7,22,0,0,0,0,0,0,0,0,0,0,10,9,24,0,0,17,0,0,0,0,0|
0,0,0,14,0,0,6,0,0,23,0,20,0,2,0,0,0,3,18,0,0,0,0,8,21|
0,0,0,3,0,0,0,15,19,0,13,0,0,7,0,0,0,0,0,0,0,0,0,0,22|
0,4,0,0,0,0,11,22,0,0,0,0,8,0,0,0,0,0,0,0,19,0,0,0,0|
16,1,0,0,0,0,0,6,21,0,0,4,18,0,0,0,0,19,0,0,0,0,3,0,15|
0,0,0,10,0,0,0,0,0,0,0,0,0,0,0,0,0,0,0,0,0,24,0,0,0|
0,0,0,0,15,0,0,0,18,0,0,0,0,0,0,0,23,16,0,10,0,0,0,0,0|
0,0,0,0,0,0,0,0,0,0,0,0,0,0,0,0,15,24,0,0,0,0,0,0,0|
0,0,0,0,0,4,15,2,0,0,0,12,0,0,13,3,9,0,0,0,11,0,0,0,19|
0,0,0,16,0,0,0,11,22,0,20,13,0,12,0,2,0,7,0,5,24,0,19,0,0|
0,0,0,0,0,21,0,0,0,0,5,0,0,0,23,0,0,12,0,0,8,0,0,16,0|
0,0,0,0,0,0,0,0,0,0,0,8,24,22,0,0,0,0,25,0,0,0,0,0,3|
6,7,0,0,17,0,0,0,3,0,0,9,0,0,15,18,0,22,0,16,0,23,0,1,12|
0,0,5,0,0,0,0,0,4,0,0,0,0,0,0,0,0,0,0,0,20,0,22,18,17|
0,0,0,0,10,0,13,4,0,0,0,2,0,0,20,0,0,0,0,0,0,8,0,0,0|
20,0,0,0,16,15,0,0,0,0,8,0,0,17,0,0,0,0,24,0,0,22,0,0,0|
0,2,3,0,4,6,0,0,0,16,0,0,5,0,21,0,0,11,0,22,0,20,12,0,0|
0,11,0,0,0,0,0,24,0,0,12,0,22,0,0,0,0,0,0,0,0,0,0,0,9|
0,0,0,0,7,0,8,21,0,0,24,0,0,10,0,20,19,0,16,12,6,0,0,0,0|
17,12,0,0,13,11,23,0,0,0,0,0,4,24,0,0,5,0,7,0,0,0,0,6,0|
0,6,0,15,0,0,0,0,0,4,0,0,0,0,22,25,0,0,0,2,0,12,0,0,0|
0,20,0,1,22,2,0,0,0,9,17,5,0,0,0,0,0,0,3,0,0,0,0,0,0|
0,0,2,0,0,0,0,20,12,0,0,0,0,0,0,0,17,21,0,0,16,3,0,0,0|
0,0,0,7,9,0,0,0,0,0,0,15,0,0,12,11,18,0,0,19,0,0,2,0,1|];